46
1000
200	4
199	1
198	2
197	3
195	3
194	2
193	2
191	1
190	4
189	1
188	3
187	3
185	4
184	1
183	2
182	3
180	1
179	1
178	5
177	2
176	6
175	4
174	1
173	2
172	5
171	5
170	4
169	1
168	3
167	1
166	1
165	2
164	3
163	2
162	2
161	3
160	1
159	2
158	1
157	1
155	4
154	1
153	8
152	1
151	4
150	4
